c Sudoku solution
p cnf 729 0
114 0
161 0
225 0
281 0
311 0
349 0
362 0
398 0
426 0
451 0
519 0
585 0
596 0
622 0
637 0
645 0
699 0
469 0
671 0
738 0
779 0
189 0
239 0
815 0
435 0
847 0
888 0
932 0
212 0
128 0
327 0
948 0
741 0
964 0
765 0
986 0
716 0
917 0
553 0
567 0
578 0
418 0
613 0
542 0
444 0
684 0
752 0
959 0
863 0
856 0
829 0
658 0
666 0
268 0
482 0
383 0
243 0
146 0
133 0
336 0
276 0
787 0
254 0
355 0
157 0
297 0
374 0
872 0
175 0
192 0
973 0
794 0
891 0
995 0
723 0
921 0
834 0
524 0
531 0
477 0
493 0
